NAME : rat99.tsp
TYPE : TOUR
DIMENSION : 99
TOUR_LENGTH : 1327.086217064185
TOUR_SECTION
1
2
3
12
11
10
20
19
28
37
38
39
40
48
47
46
55
56
57
58
59
60
49
50
51
52
53
62
61
68
67
66
65
64
74
73
75
76
85
84
83
82
91
92
93
94
96
97
98
99
90
89
95
86
87
88
79
77
78
69
70
71
80
81
72
63
54
45
44
34
43
42
33
41
32
31
29
30
21
22
23
24
35
36
27
26
25
15
16
17
18
9
8
7
6
5
14
13
4
-1
